NAME : in_house_7_10
TYPE : TSP
DIMENSION : 7
EDGE_WEIGHT_TYPE : EXPLICIT
EDGE_WEIGHT_FORMAT : UPPER_ROW
COMMENT : INVERSION_SHIFT=3
EDGE_WEIGHT_SECTION
36
6
28
36
16
34
5
8
22
31
39
26
39
49
14
26
23
21
26
21
14
